ssat_solver_solve2
#level: 29
Abc_NtkNodeNum(s->pNtk): 338  , BDD limit: 10240
Build BDD success
level 28: 2 element
Exist
level 27: 1 element
Random
level 26: 3 element
Exist
level 25: 1 element
Random
level 24: 3 element
Exist
level 23: 1 element
Random
level 22: 3 element
Exist
level 21: 1 element
Random
level 20: 3 element
Exist
level 19: 1 element
Random
level 18: 3 element
Exist
level 17: 1 element
Random
level 16: 3 element
Exist
level 15: 1 element
Random
level 14: 3 element
Exist
level 13: 1 element
Random
level 12: 3 element
Exist
level 11: 1 element
Random
level 10: 3 element
Exist
level 9: 1 element
Random
level 8: 3 element
Exist
level 7: 1 element
Random
level 6: 3 element
Exist
level 5: 1 element
Random
level 4: 3 element
Exist
level 3: 1 element
Random
level 2: 3 element
Exist
level 1: 1 element
Random
level 0: 3 element
Exist
c ssat solving in ABC
#var: 58
s SATISFIABLE
  > Upper bound = 1.000000e+00
  > Lower bound = 1.000000e+00
FINISHED CPU 0.00 MEM 45584 MAXMEM 45584 STALE 1 MAXMEM_RSS 4288
<time name="ALL">80</time>
real 0.39
user 0.20
sys 0.14
